Version identifier: 20.1.0.0 | 2020-11-10 | 9bedb6d68
Tried aggregator 3 times.
MIP Presolve eliminated 1968 rows and 1044 columns.
MIP Presolve modified 4798 coefficients.
Aggregator did 202 substitutions.
Reduced MIP has 2849 rows, 2279 columns, and 9394 nonzeros.
Reduced MIP has 501 binaries, 1778 generals, 0 SOSs, and 0 indicators.
Presolve time = 0.03 sec. (13.60 ticks)
Probing fixed 60 vars, tightened 542 bounds.
Probing time = 0.00 sec. (2.19 ticks)
Tried aggregator 2 times.
Detecting symmetries...
MIP Presolve eliminated 1224 rows and 106 columns.
MIP Presolve modified 255 coefficients.
Aggregator did 32 substitutions.
Reduced MIP has 1593 rows, 2141 columns, and 5324 nonzeros.
Reduced MIP has 639 binaries, 1502 generals, 0 SOSs, and 0 indicators.
Presolve time = 0.02 sec. (7.80 ticks)
Probing time = 0.00 sec. (0.56 ticks)
Clique table members: 185.
MIP emphasis: balance optimality and feasibility.
MIP search method: dynamic search.
Parallel mode: deterministic, using up to 24 threads.
Root relaxation solution time = 0.02 sec. (4.98 ticks)

        Nodes                                         Cuts/
   Node  Left     Objective  IInf  Best Integer    Best Bound    ItCnt     Gap

*     0+    0                           83.0000        0.0000           100.00%
      0     0        0.0000    74       83.0000        0.0000      501  100.00%
      0     0        0.0000    87       83.0000     Cuts: 211      635  100.00%
*     0+    0                           38.0000        0.0000           100.00%
      0     0        0.0000    81       38.0000     Cuts: 167      863   78.95%
      0     0        0.0000    70       38.0000      Cuts: 55      904   78.95%
      0     0        0.0000    34       38.0000      Cuts: 32     1046   78.95%
      0     0        0.0000    45       38.0000      Cuts: 36     1177   78.95%
*     0+    0                           33.0000        8.0000            75.76%
*     0+    0                           22.0000        8.0000            63.64%
      0     2        0.0000    45       22.0000        8.0000     1177   63.64%
Elapsed time = 0.97 sec. (207.70 ticks, tree = 0.02 MB, solutions = 4)
*     1+    1                           20.0000        8.0000            60.00%
*   277+   35                           18.0000        8.0000            55.56%

Cover cuts applied:  4
Implied bound cuts applied:  256
Flow cuts applied:  3
Mixed integer rounding cuts applied:  30
Zero-half cuts applied:  120
Lift and project cuts applied:  23
Gomory fractional cuts applied:  44

Root node processing (before b&c):
  Real time             =    0.90 sec. (207.03 ticks)
Parallel b&c, 24 threads:
  Real time             =    0.70 sec. (119.13 ticks)
  Sync time (average)   =    0.47 sec.
  Wait time (average)   =    0.00 sec.
                          ------------
Total (root+branch&cut) =    1.60 sec. (326.17 ticks)

Solution status = Optimal
Solution LB = 18
Solution UB = 18
Runtime = 1.60688 seconds
	Command being timed: "/home/min/git_repos/CS598MEBProject/CNT-ILP/build/cnt -s 2 ./output/k8_n30/simC_c1_k8_n30_u2_s3_del04.input-right.cnp"
	User time (seconds): 22.53
	System time (seconds): 0.26
	Percent of CPU this job got: 1372%
	Elapsed (wall clock) time (h:mm:ss or m:ss): 0:01.66
	Average shared text size (kbytes): 0
	Average unshared data size (kbytes): 0
	Average stack size (kbytes): 0
	Average total size (kbytes): 0
	Maximum resident set size (kbytes): 173252
	Average resident set size (kbytes): 0
	Major (requiring I/O) page faults: 0
	Minor (reclaiming a frame) page faults: 58180
	Voluntary context switches: 10154
	Involuntary context switches: 3125
	Swaps: 0
	File system inputs: 0
	File system outputs: 24
	Socket messages sent: 0
	Socket messages received: 0
	Signals delivered: 0
	Page size (bytes): 4096
	Exit status: 0
